networks/zoo_132_3432/zoo_132_3432.txt
Number of groups: 65
Flow 35: {19 17} {17 39} {39 105} 
Flow 46: {6 50} {50 116} 
Flow 62: {60 66} {66 132} 
Flow 85: {7 5} {5 24} {24 90} 
Flow 151: {3 62} {62 2} {2 20} {20 29} {29 95} 
Flow 172: {62 59} {59 60} {60 57} {57 123} 
Flow 304: {4 62} {62 3} {3 69} 
Flow 446: {8 5} {5 23} {23 89} 
Flow 463: {8 2} {2 21} {21 45} {45 111} 
Flow 502: {9 46} {46 27} {27 93} 
Flow 559: {10 46} {46 26} {26 92} 
Flow 698: {12 1} {1 7} {7 53} {53 119} 
Flow 738: {13 20} {20 26} {26 34} {34 100} 
Flow 797: {14 20} {20 31} {31 97} 
Flow 863: {15 20} {20 21} {21 43} {43 109} 
Flow 895: {16 20} {20 15} {15 81} 
Flow 1037: {18 17} {17 19} {19 41} {41 107} 
Flow 1236: {21 2} {2 62} {62 58} {58 124} 
Flow 1275: {22 2} {2 46} {46 37} {37 103} 
Flow 1308: {23 5} {5 8} 
Flow 1342: {5 7} {7 47} {47 113} 
Flow 1344: {1 4} {4 49} {49 115} 
Flow 1361: {24 5} {5 71} 
Flow 1394: {25 26} {26 17} {17 18} {18 84} 
Flow 1481: {27 46} {46 112} 
Flow 1489: {17 60} {60 126} 
Flow 1495: {28 46} {46 2} {2 68} 
Flow 1550: {29 20} {20 86} 
Flow 1592: {30 20} {20 44} {44 110} 
Flow 1624: {31 20} {20 13} {13 79} 
Flow 1660: {32 26} {26 20} {20 2} {2 7} {7 73} 
Flow 1694: {33 26} {26 25} {25 35} {35 101} 
Flow 1775: {34 26} {26 46} {46 63} {63 129} 
Flow 1786: {35 25} {25 46} {46 10} {10 76} 
Flow 1860: {36 46} {46 28} {28 94} 
Flow 1896: {37 46} {46 9} {9 75} 
Flow 1950: {38 19} {19 2} {2 4} {4 70} 
Flow 1974: {39 17} {17 26} {26 33} {33 99} 
Flow 2017: {40 19} {19 38} {38 104} 
Flow 2055: {41 19} {19 85} 
Flow 2086: {42 21} {21 87} 
Flow 2136: {43 21} {21 20} {20 16} {16 82} 
Flow 2204: {44 20} {20 46} {46 25} {25 91} 
Flow 2277: {45 21} {21 42} {42 108} 
Flow 2406: {47 7} {7 11} {11 54} {54 120} 
Flow 2426: {48 11} {11 77} 
Flow 2479: {49 4} {4 2} {2 8} {8 74} 
Flow 2564: {50 6} {6 4} {4 11} {11 48} {48 114} 
Flow 2587: {51 1} {1 12} {12 78} 
Flow 2664: {20 30} {30 96} 
Flow 2672: {52 7} {7 2} {2 19} {19 40} {40 106} 
Flow 2696: {53 7} {7 1} {1 67} 
Flow 2809: {54 11} {11 7} {7 61} {61 127} 
Flow 2862: {55 11} {11 4} {4 1} {1 51} {51 117} 
Flow 2925: {56 61} {61 62} {62 128} 
Flow 2932: {59 62} {62 4} {4 6} {6 72} 
Flow 2959: {57 60} {60 65} {65 131} 
Flow 2981: {2 22} {22 88} 
Flow 3012: {58 62} {62 61} {61 56} {56 122} 
Flow 3071: {11 55} {55 121} 
Flow 3261: {63 46} {46 20} {20 14} {14 80} 
Flow 3309: {64 61} {61 60} {60 17} {17 83} 
Flow 3371: {65 60} {60 61} {61 64} {64 130} 
Flow 3420: {61 7} {7 52} {52 118} 
Flow 3426: {66 60} {60 59} {59 125} 
Time taken running everything: 224 seconds
