networks/zoo_132_3432/zoo_132_3432.sol
<?xml version = "1.0" encoding="UTF-8" standalone="yes"?>
<CPLEXSolution version="1.2">
 <header
   problemName="networks/zoo_132_3432/zoo_132_3432.lp"
   solutionName="incumbent"
   solutionIndex="-1"
   objectiveValue="65"
   solutionTypeValue="3"
   solutionTypeString="primal"
   solutionStatusValue="101"
   solutionStatusString="integer optimal solution"
   solutionMethodString="mip"
   primalFeasible="1"
   dualFeasible="1"
   MIPNodes="1161"
   MIPIterations="181564"
   writeLevel="3"/>
 <quality
   epInt="1.0000000000000001e-05"
   epRHS="9.9999999999999995e-07"
   maxIntInfeas="0"
   maxPrimalInfeas="0"
   maxX="4"
   maxSlack="10"/>
 <variables>
  <variable name="Y(35,39)" index="4458" value="1"/>
  <variable name="Y(46,50)" index="5899" value="1"/>
  <variable name="Y(62,66)" index="7995" value="1"/>
  <variable name="Y(85,24)" index="10943" value="1"/>
  <variable name="Y(151,29)" index="19528" value="1"/>
  <variable name="Y(172,57)" index="22286" value="1"/>
  <variable name="Y(304,3)" index="39392" value="1"/>
  <variable name="Y(446,23)" index="57872" value="1"/>
  <variable name="Y(463,45)" index="60104" value="1"/>
  <variable name="Y(502,27)" index="65156" value="1"/>
  <variable name="Y(559,26)" index="72565" value="1"/>
  <variable name="Y(698,53)" index="90662" value="1"/>
  <variable name="Y(738,34)" index="95843" value="1"/>
  <variable name="Y(797,31)" index="103510" value="1"/>
  <variable name="Y(863,43)" index="112102" value="1"/>
  <variable name="Y(895,15)" index="116234" value="1"/>
  <variable name="Y(1037,41)" index="134720" value="1"/>
  <variable name="Y(1236,58)" index="160607" value="1"/>
  <variable name="Y(1275,37)" index="165656" value="1"/>
  <variable name="Y(1308,5)" index="169914" value="1"/>
  <variable name="Y(1342,47)" index="174376" value="1"/>
  <variable name="Y(1344,49)" index="174638" value="1"/>
  <variable name="Y(1361,5)" index="176804" value="1"/>
  <variable name="Y(1394,18)" index="181107" value="1"/>
  <variable name="Y(1481,46)" index="192445" value="1"/>
  <variable name="Y(1489,60)" index="193499" value="1"/>
  <variable name="Y(1495,2)" index="194221" value="1"/>
  <variable name="Y(1550,20)" index="201389" value="1"/>
  <variable name="Y(1592,44)" index="206873" value="1"/>
  <variable name="Y(1624,13)" index="211002" value="1"/>
  <variable name="Y(1660,7)" index="215676" value="1"/>
  <variable name="Y(1694,35)" index="220124" value="1"/>
  <variable name="Y(1775,63)" index="230682" value="1"/>
  <variable name="Y(1786,10)" index="232059" value="1"/>
  <variable name="Y(1860,28)" index="241697" value="1"/>
  <variable name="Y(1896,9)" index="246358" value="1"/>
  <variable name="Y(1950,4)" index="253373" value="1"/>
  <variable name="Y(1974,33)" index="256522" value="1"/>
  <variable name="Y(2017,38)" index="262117" value="1"/>
  <variable name="Y(2055,19)" index="267038" value="1"/>
  <variable name="Y(2086,21)" index="271070" value="1"/>
  <variable name="Y(2136,16)" index="277565" value="1"/>
  <variable name="Y(2204,25)" index="286414" value="1"/>
  <variable name="Y(2277,42)" index="295921" value="1"/>
  <variable name="Y(2406,54)" index="312703" value="1"/>
  <variable name="Y(2426,11)" index="315260" value="1"/>
  <variable name="Y(2479,8)" index="322147" value="1"/>
  <variable name="Y(2564,48)" index="333237" value="1"/>
  <variable name="Y(2587,12)" index="336191" value="1"/>
  <variable name="Y(2664,30)" index="346219" value="1"/>
  <variable name="Y(2672,40)" index="347269" value="1"/>
  <variable name="Y(2696,1)" index="350350" value="1"/>
  <variable name="Y(2809,61)" index="365100" value="1"/>
  <variable name="Y(2862,51)" index="371980" value="1"/>
  <variable name="Y(2925,62)" index="380181" value="1"/>
  <variable name="Y(2932,6)" index="381035" value="1"/>
  <variable name="Y(2959,65)" index="384604" value="1"/>
  <variable name="Y(2981,22)" index="387421" value="1"/>
  <variable name="Y(3012,56)" index="391485" value="1"/>
  <variable name="Y(3071,55)" index="399154" value="1"/>
  <variable name="Y(3261,14)" index="423813" value="1"/>
  <variable name="Y(3309,17)" index="430056" value="1"/>
  <variable name="Y(3371,64)" index="438163" value="1"/>
  <variable name="Y(3420,52)" index="444521" value="1"/>
  <variable name="Y(3426,59)" index="445308" value="1"/>
  <variable name="X(1,4,1344)" index="447503" value="1"/>
  <variable name="X(1,7,698)" index="450289" value="1"/>
  <variable name="X(1,12,2587)" index="455610" value="1"/>
  <variable name="X(1,51,2862)" index="459317" value="1"/>
  <variable name="X(1,67,2696)" index="462583" value="1"/>
  <variable name="X(2,4,1950)" index="465269" value="1"/>
  <variable name="X(2,7,1660)" index="468411" value="1"/>
  <variable name="X(2,8,2479)" index="472662" value="1"/>
  <variable name="X(2,19,2672)" index="476287" value="1"/>
  <variable name="X(2,20,151)" index="477198" value="1"/>
  <variable name="X(2,21,463)" index="480942" value="1"/>
  <variable name="X(2,22,2981)" index="486892" value="1"/>
  <variable name="X(2,46,1275)" index="488618" value="1"/>
  <variable name="X(2,62,1236)" index="492011" value="1"/>
  <variable name="X(2,68,1495)" index="495702" value="1"/>
  <variable name="X(3,62,151)" index="497790" value="1"/>
  <variable name="X(3,69,304)" index="501375" value="1"/>
  <variable name="X(4,1,2862)" index="507365" value="1"/>
  <variable name="X(4,2,2479)" index="510414" value="1"/>
  <variable name="X(4,6,2932)" index="514299" value="1"/>
  <variable name="X(4,11,2564)" index="517363" value="1"/>
  <variable name="X(4,49,1344)" index="519575" value="1"/>
  <variable name="X(4,62,304)" index="521967" value="1"/>
  <variable name="X(4,70,1950)" index="527045" value="1"/>
  <variable name="X(5,7,1342)" index="529869" value="1"/>
  <variable name="X(5,8,1308)" index="533267" value="1"/>
  <variable name="X(5,23,446)" index="535837" value="1"/>
  <variable name="X(5,24,85)" index="538908" value="1"/>
  <variable name="X(5,71,1361)" index="543616" value="1"/>
  <variable name="X(6,4,2564)" index="548251" value="1"/>
  <variable name="X(6,50,46)" index="549165" value="1"/>
  <variable name="X(6,72,2932)" index="555483" value="1"/>
  <variable name="X(7,1,2696)" index="558679" value="1"/>
  <variable name="X(7,2,2672)" index="562087" value="1"/>
  <variable name="X(7,5,85)" index="562932" value="1"/>
  <variable name="X(7,11,2406)" index="568685" value="1"/>
  <variable name="X(7,47,1342)" index="571053" value="1"/>
  <variable name="X(7,52,3420)" index="576563" value="1"/>
  <variable name="X(7,53,698)" index="577273" value="1"/>
  <variable name="X(7,61,2809)" index="582816" value="1"/>
  <variable name="X(7,73,1660)" index="585099" value="1"/>
  <variable name="X(8,2,463)" index="587334" value="1"/>
  <variable name="X(8,5,446)" index="590749" value="1"/>
  <variable name="X(8,74,2479)" index="596214" value="1"/>
  <variable name="X(9,46,502)" index="597669" value="1"/>
  <variable name="X(9,75,1896)" index="602495" value="1"/>
  <variable name="X(10,46,559)" index="604590" value="1"/>
  <variable name="X(10,76,1786)" index="609249" value="1"/>
  <variable name="X(11,4,2862)" index="613757" value="1"/>
  <variable name="X(11,7,2809)" index="617136" value="1"/>
  <variable name="X(11,48,2564)" index="620323" value="1"/>
  <variable name="X(11,54,2406)" index="623597" value="1"/>
  <variable name="X(11,55,3071)" index="627694" value="1"/>
  <variable name="X(11,77,2426)" index="630481" value="1"/>
  <variable name="X(12,1,698)" index="632185" value="1"/>
  <variable name="X(12,78,2587)" index="637506" value="1"/>
  <variable name="X(13,20,738)" index="639089" value="1"/>
  <variable name="X(13,79,1624)" index="643407" value="1"/>
  <variable name="X(14,20,797)" index="646012" value="1"/>
  <variable name="X(14,80,3261)" index="651908" value="1"/>
  <variable name="X(15,20,863)" index="652942" value="1"/>
  <variable name="X(15,81,895)" index="656406" value="1"/>
  <variable name="X(16,20,895)" index="659838" value="1"/>
  <variable name="X(16,82,2136)" index="664511" value="1"/>
  <variable name="X(17,18,1394)" index="667201" value="1"/>
  <variable name="X(17,19,1037)" index="670276" value="1"/>
  <variable name="X(17,26,1974)" index="674645" value="1"/>
  <variable name="X(17,39,35)" index="676138" value="1"/>
  <variable name="X(17,60,1489)" index="681024" value="1"/>
  <variable name="X(17,83,3309)" index="686276" value="1"/>
  <variable name="X(18,17,1037)" index="687436" value="1"/>
  <variable name="X(18,84,1394)" index="691225" value="1"/>
  <variable name="X(19,2,1950)" index="695213" value="1"/>
  <variable name="X(19,17,35)" index="696730" value="1"/>
  <variable name="X(19,38,2017)" index="702144" value="1"/>
  <variable name="X(19,40,2672)" index="706231" value="1"/>
  <variable name="X(19,41,1037)" index="708028" value="1"/>
  <variable name="X(19,85,2055)" index="712478" value="1"/>
  <variable name="X(20,2,1660)" index="715515" value="1"/>
  <variable name="X(20,13,1624)" index="718911" value="1"/>
  <variable name="X(20,14,3261)" index="723980" value="1"/>
  <variable name="X(20,15,895)" index="725046" value="1"/>
  <variable name="X(20,16,2136)" index="729719" value="1"/>
  <variable name="X(20,21,863)" index="731878" value="1"/>
  <variable name="X(20,26,738)" index="735185" value="1"/>
  <variable name="X(20,29,151)" index="738030" value="1"/>
  <variable name="X(20,30,2664)" index="743975" value="1"/>
  <variable name="X(20,31,797)" index="745540" value="1"/>
  <variable name="X(20,44,1592)" index="749767" value="1"/>
  <variable name="X(20,46,2204)" index="753811" value="1"/>
  <variable name="X(20,86,1550)" index="756589" value="1"/>
  <variable name="X(21,2,1236)" index="759707" value="1"/>
  <variable name="X(21,20,2136)" index="764039" value="1"/>
  <variable name="X(21,42,2277)" index="767612" value="1"/>
  <variable name="X(21,43,863)" index="769630" value="1"/>
  <variable name="X(21,45,463)" index="772662" value="1"/>
  <variable name="X(21,87,2086)" index="777717" value="1"/>
  <variable name="X(22,2,1275)" index="780338" value="1"/>
  <variable name="X(22,88,2981)" index="785476" value="1"/>
  <variable name="X(23,5,1308)" index="787235" value="1"/>
  <variable name="X(23,89,446)" index="789805" value="1"/>
  <variable name="X(24,5,1361)" index="794152" value="1"/>
  <variable name="X(24,90,85)" index="796308" value="1"/>
  <variable name="X(25,26,1394)" index="801049" value="1"/>
  <variable name="X(25,35,1694)" index="804781" value="1"/>
  <variable name="X(25,46,1786)" index="808305" value="1"/>
  <variable name="X(25,91,2204)" index="812155" value="1"/>
  <variable name="X(26,17,1394)" index="814777" value="1"/>
  <variable name="X(26,20,1660)" index="818475" value="1"/>
  <variable name="X(26,25,1694)" index="821941" value="1"/>
  <variable name="X(26,33,1974)" index="825653" value="1"/>
  <variable name="X(26,34,738)" index="827849" value="1"/>
  <variable name="X(26,46,1775)" index="832318" value="1"/>
  <variable name="X(26,92,559)" index="834534" value="1"/>
  <variable name="X(27,46,1481)" index="838888" value="1"/>
  <variable name="X(27,93,502)" index="841341" value="1"/>
  <variable name="X(28,46,1495)" index="845766" value="1"/>
  <variable name="X(28,94,1860)" index="849563" value="1"/>
  <variable name="X(29,20,1550)" index="852685" value="1"/>
  <variable name="X(29,95,151)" index="854718" value="1"/>
  <variable name="X(30,20,1592)" index="859591" value="1"/>
  <variable name="X(30,96,2664)" index="864095" value="1"/>
  <variable name="X(31,20,1624)" index="866487" value="1"/>
  <variable name="X(31,97,797)" index="869092" value="1"/>
  <variable name="X(32,26,1660)" index="873387" value="1"/>
  <variable name="X(33,26,1694)" index="876853" value="1"/>
  <variable name="X(33,99,1974)" index="880565" value="1"/>
  <variable name="X(34,26,1775)" index="883798" value="1"/>
  <variable name="X(34,100,738)" index="886193" value="1"/>
  <variable name="X(35,25,1786)" index="890673" value="1"/>
  <variable name="X(35,101,1694)" index="894013" value="1"/>
  <variable name="X(36,46,1860)" index="897611" value="1"/>
  <variable name="X(37,46,1896)" index="901079" value="1"/>
  <variable name="X(37,103,1275)" index="903890" value="1"/>
  <variable name="X(38,19,1950)" index="907997" value="1"/>
  <variable name="X(38,104,2017)" index="911496" value="1"/>
  <variable name="X(39,17,1974)" index="914885" value="1"/>
  <variable name="X(39,105,35)" index="916378" value="1"/>
  <variable name="X(40,19,2017)" index="921792" value="1"/>
  <variable name="X(40,106,2672)" index="925879" value="1"/>
  <variable name="X(41,19,2055)" index="928694" value="1"/>
  <variable name="X(41,107,1037)" index="931108" value="1"/>
  <variable name="X(42,21,2086)" index="935589" value="1"/>
  <variable name="X(42,108,2277)" index="939212" value="1"/>
  <variable name="X(43,21,2136)" index="942503" value="1"/>
  <variable name="X(43,109,863)" index="944662" value="1"/>
  <variable name="X(44,20,2204)" index="949435" value="1"/>
  <variable name="X(44,110,1592)" index="952255" value="1"/>
  <variable name="X(45,21,2277)" index="956372" value="1"/>
  <variable name="X(45,111,463)" index="957990" value="1"/>
  <variable name="X(46,2,1495)" index="962454" value="1"/>
  <variable name="X(46,9,1896)" index="966287" value="1"/>
  <variable name="X(46,10,1786)" index="969609" value="1"/>
  <variable name="X(46,20,3261)" index="974516" value="1"/>
  <variable name="X(46,25,2204)" index="976891" value="1"/>
  <variable name="X(46,26,559)" index="978678" value="1"/>
  <variable name="X(46,27,502)" index="982053" value="1"/>
  <variable name="X(46,28,1860)" index="986843" value="1"/>
  <variable name="X(46,37,1275)" index="989690" value="1"/>
  <variable name="X(46,63,1775)" index="993622" value="1"/>
  <variable name="X(46,112,1481)" index="996760" value="1"/>
  <variable name="X(47,7,2406)" index="1001117" value="1"/>
  <variable name="X(47,113,1342)" index="1003485" value="1"/>
  <variable name="X(48,11,2426)" index="1008001" value="1"/>
  <variable name="X(48,114,2564)" index="1011571" value="1"/>
  <variable name="X(49,4,2479)" index="1014918" value="1"/>
  <variable name="X(49,115,1344)" index="1017215" value="1"/>
  <variable name="X(50,6,2564)" index="1021867" value="1"/>
  <variable name="X(50,116,46)" index="1022781" value="1"/>
  <variable name="X(51,1,2587)" index="1028754" value="1"/>
  <variable name="X(51,117,2862)" index="1032461" value="1"/>
  <variable name="X(52,7,2672)" index="1035703" value="1"/>
  <variable name="X(52,118,3420)" index="1039883" value="1"/>
  <variable name="X(53,7,2696)" index="1042591" value="1"/>
  <variable name="X(53,119,698)" index="1044025" value="1"/>
  <variable name="X(54,11,2809)" index="1049568" value="1"/>
  <variable name="X(54,120,2406)" index="1052597" value="1"/>
  <variable name="X(55,11,2862)" index="1056485" value="1"/>
  <variable name="X(55,121,3071)" index="1060126" value="1"/>
  <variable name="X(56,61,2925)" index="1063412" value="1"/>
  <variable name="X(56,122,3012)" index="1066931" value="1"/>
  <variable name="X(57,60,2959)" index="1070310" value="1"/>
  <variable name="X(57,123,172)" index="1070955" value="1"/>
  <variable name="X(58,62,3012)" index="1077227" value="1"/>
  <variable name="X(58,124,1236)" index="1078883" value="1"/>
  <variable name="X(59,60,172)" index="1081251" value="1"/>
  <variable name="X(59,62,2932)" index="1087443" value="1"/>
  <variable name="X(59,125,3426)" index="1091369" value="1"/>
  <variable name="X(60,17,3309)" index="1094684" value="1"/>
  <variable name="X(60,57,172)" index="1094979" value="1"/>
  <variable name="X(60,59,3426)" index="1101665" value="1"/>
  <variable name="X(60,61,3371)" index="1105042" value="1"/>
  <variable name="X(60,65,2959)" index="1108062" value="1"/>
  <variable name="X(60,66,62)" index="1108597" value="1"/>
  <variable name="X(60,126,1489)" index="1113456" value="1"/>
  <variable name="X(61,7,3420)" index="1118819" value="1"/>
  <variable name="X(61,56,3012)" index="1121843" value="1"/>
  <variable name="X(61,60,3309)" index="1125572" value="1"/>
  <variable name="X(61,62,2925)" index="1128620" value="1"/>
  <variable name="X(61,64,3371)" index="1132498" value="1"/>
  <variable name="X(61,127,2809)" index="1135368" value="1"/>
  <variable name="X(62,2,151)" index="1136142" value="1"/>
  <variable name="X(62,3,304)" index="1139727" value="1"/>
  <variable name="X(62,4,2932)" index="1145787" value="1"/>
  <variable name="X(62,58,1236)" index="1147523" value="1"/>
  <variable name="X(62,59,172)" index="1149891" value="1"/>
  <variable name="X(62,61,3012)" index="1156163" value="1"/>
  <variable name="X(62,128,2925)" index="1159508" value="1"/>
  <variable name="X(63,46,3261)" index="1163276" value="1"/>
  <variable name="X(63,129,1775)" index="1165222" value="1"/>
  <variable name="X(64,61,3309)" index="1170188" value="1"/>
  <variable name="X(64,130,3371)" index="1173682" value="1"/>
  <variable name="X(65,60,3371)" index="1177114" value="1"/>
  <variable name="X(65,131,2959)" index="1180134" value="1"/>
  <variable name="X(66,60,3426)" index="1184033" value="1"/>
  <variable name="X(66,132,62)" index="1184101" value="1"/>
  <variable name="C(35,17)" index="1187626" value="1"/>
  <variable name="C(35,39)" index="1187627" value="2"/>
  <variable name="C(46,50)" index="1187675" value="1"/>
  <variable name="C(62,66)" index="1187737" value="1"/>
  <variable name="C(85,5)" index="1187802" value="1"/>
  <variable name="C(85,24)" index="1187803" value="2"/>
  <variable name="C(151,62)" index="1188056" value="1"/>
  <variable name="C(151,2)" index="1188057" value="2"/>
  <variable name="C(151,20)" index="1188058" value="3"/>
  <variable name="C(151,29)" index="1188059" value="4"/>
  <variable name="C(172,59)" index="1188161" value="1"/>
  <variable name="C(172,60)" index="1188162" value="2"/>
  <variable name="C(172,57)" index="1188163" value="3"/>
  <variable name="C(304,62)" index="1188697" value="1"/>
  <variable name="C(304,3)" index="1188698" value="2"/>
  <variable name="C(446,5)" index="1189271" value="1"/>
  <variable name="C(446,23)" index="1189272" value="2"/>
  <variable name="C(463,2)" index="1189340" value="1"/>
  <variable name="C(463,21)" index="1189341" value="2"/>
  <variable name="C(463,45)" index="1189342" value="3"/>
  <variable name="C(502,46)" index="1189509" value="1"/>
  <variable name="C(502,27)" index="1189510" value="2"/>
  <variable name="C(559,46)" index="1189768" value="1"/>
  <variable name="C(559,26)" index="1189769" value="2"/>
  <variable name="C(698,1)" index="1190419" value="1"/>
  <variable name="C(698,7)" index="1190420" value="2"/>
  <variable name="C(698,53)" index="1190421" value="3"/>
  <variable name="C(738,20)" index="1190588" value="1"/>
  <variable name="C(738,26)" index="1190589" value="2"/>
  <variable name="C(738,34)" index="1190590" value="3"/>
  <variable name="C(797,20)" index="1190854" value="1"/>
  <variable name="C(797,31)" index="1190855" value="2"/>
  <variable name="C(863,20)" index="1191147" value="1"/>
  <variable name="C(863,21)" index="1191148" value="2"/>
  <variable name="C(863,43)" index="1191149" value="3"/>
  <variable name="C(895,20)" index="1191296" value="1"/>
  <variable name="C(895,15)" index="1191297" value="2"/>
  <variable name="C(1037,17)" index="1191919" value="1"/>
  <variable name="C(1037,19)" index="1191920" value="2"/>
  <variable name="C(1037,41)" index="1191921" value="3"/>
  <variable name="C(1236,2)" index="1192692" value="1"/>
  <variable name="C(1236,62)" index="1192693" value="2"/>
  <variable name="C(1236,58)" index="1192694" value="3"/>
  <variable name="C(1275,2)" index="1192849" value="1"/>
  <variable name="C(1275,46)" index="1192850" value="2"/>
  <variable name="C(1275,37)" index="1192851" value="3"/>
  <variable name="C(1308,5)" index="1192993" value="1"/>
  <variable name="C(1342,7)" index="1193193" value="1"/>
  <variable name="C(1342,47)" index="1193194" value="2"/>
  <variable name="C(1344,4)" index="1193204" value="1"/>
  <variable name="C(1344,49)" index="1193205" value="2"/>
  <variable name="C(1361,5)" index="1193289" value="1"/>
  <variable name="C(1394,26)" index="1193439" value="1"/>
  <variable name="C(1394,17)" index="1193440" value="2"/>
  <variable name="C(1394,18)" index="1193441" value="3"/>
  <variable name="C(1481,46)" index="1193804" value="1"/>
  <variable name="C(1489,60)" index="1193849" value="1"/>
  <variable name="C(1495,46)" index="1193874" value="1"/>
  <variable name="C(1495,2)" index="1193875" value="2"/>
  <variable name="C(1550,20)" index="1194114" value="1"/>
  <variable name="C(1592,20)" index="1194283" value="1"/>
  <variable name="C(1592,44)" index="1194284" value="2"/>
  <variable name="C(1624,20)" index="1194439" value="1"/>
  <variable name="C(1624,13)" index="1194440" value="2"/>
  <variable name="C(1660,26)" index="1194591" value="1"/>
  <variable name="C(1660,20)" index="1194592" value="2"/>
  <variable name="C(1660,2)" index="1194593" value="3"/>
  <variable name="C(1660,7)" index="1194594" value="4"/>
  <variable name="C(1694,26)" index="1194742" value="1"/>
  <variable name="C(1694,25)" index="1194743" value="2"/>
  <variable name="C(1694,35)" index="1194744" value="3"/>
  <variable name="C(1775,26)" index="1195146" value="1"/>
  <variable name="C(1775,46)" index="1195147" value="2"/>
  <variable name="C(1775,63)" index="1195148" value="3"/>
  <variable name="C(1786,25)" index="1195202" value="1"/>
  <variable name="C(1786,46)" index="1195203" value="2"/>
  <variable name="C(1786,10)" index="1195204" value="3"/>
  <variable name="C(1860,46)" index="1195565" value="1"/>
  <variable name="C(1860,28)" index="1195566" value="2"/>
  <variable name="C(1896,46)" index="1195732" value="1"/>
  <variable name="C(1896,9)" index="1195733" value="2"/>
  <variable name="C(1950,19)" index="1195977" value="1"/>
  <variable name="C(1950,2)" index="1195978" value="2"/>
  <variable name="C(1950,4)" index="1195979" value="3"/>
  <variable name="C(1974,17)" index="1196086" value="1"/>
  <variable name="C(1974,26)" index="1196087" value="2"/>
  <variable name="C(1974,33)" index="1196088" value="3"/>
  <variable name="C(2017,19)" index="1196289" value="1"/>
  <variable name="C(2017,38)" index="1196290" value="2"/>
  <variable name="C(2055,19)" index="1196472" value="1"/>
  <variable name="C(2086,21)" index="1196610" value="1"/>
  <variable name="C(2136,21)" index="1196852" value="1"/>
  <variable name="C(2136,20)" index="1196853" value="2"/>
  <variable name="C(2136,16)" index="1196854" value="3"/>
  <variable name="C(2204,20)" index="1197170" value="1"/>
  <variable name="C(2204,46)" index="1197171" value="2"/>
  <variable name="C(2204,25)" index="1197172" value="3"/>
  <variable name="C(2277,21)" index="1197509" value="1"/>
  <variable name="C(2277,42)" index="1197510" value="2"/>
  <variable name="C(2406,7)" index="1198051" value="1"/>
  <variable name="C(2406,11)" index="1198052" value="2"/>
  <variable name="C(2406,54)" index="1198053" value="3"/>
  <variable name="C(2426,11)" index="1198138" value="1"/>
  <variable name="C(2479,4)" index="1198409" value="1"/>
  <variable name="C(2479,2)" index="1198410" value="2"/>
  <variable name="C(2479,8)" index="1198411" value="3"/>
  <variable name="C(2564,6)" index="1198844" value="1"/>
  <variable name="C(2564,4)" index="1198845" value="2"/>
  <variable name="C(2564,11)" index="1198846" value="3"/>
  <variable name="C(2564,48)" index="1198847" value="4"/>
  <variable name="C(2587,1)" index="1198955" value="1"/>
  <variable name="C(2587,12)" index="1198956" value="2"/>
  <variable name="C(2664,30)" index="1199351" value="1"/>
  <variable name="C(2672,7)" index="1199392" value="1"/>
  <variable name="C(2672,2)" index="1199393" value="2"/>
  <variable name="C(2672,19)" index="1199394" value="3"/>
  <variable name="C(2672,40)" index="1199395" value="4"/>
  <variable name="C(2696,7)" index="1199498" value="1"/>
  <variable name="C(2696,1)" index="1199499" value="2"/>
  <variable name="C(2809,11)" index="1200051" value="1"/>
  <variable name="C(2809,7)" index="1200052" value="2"/>
  <variable name="C(2809,61)" index="1200053" value="3"/>
  <variable name="C(2862,11)" index="1200334" value="1"/>
  <variable name="C(2862,4)" index="1200335" value="2"/>
  <variable name="C(2862,1)" index="1200336" value="3"/>
  <variable name="C(2862,51)" index="1200337" value="4"/>
  <variable name="C(2925,61)" index="1200652" value="1"/>
  <variable name="C(2925,62)" index="1200653" value="2"/>
  <variable name="C(2932,62)" index="1200687" value="1"/>
  <variable name="C(2932,4)" index="1200688" value="2"/>
  <variable name="C(2932,6)" index="1200689" value="3"/>
  <variable name="C(2959,60)" index="1200824" value="1"/>
  <variable name="C(2959,65)" index="1200825" value="2"/>
  <variable name="C(2981,22)" index="1200921" value="1"/>
  <variable name="C(3012,62)" index="1201076" value="1"/>
  <variable name="C(3012,61)" index="1201077" value="2"/>
  <variable name="C(3012,56)" index="1201078" value="3"/>
  <variable name="C(3071,55)" index="1201347" value="1"/>
  <variable name="C(3261,46)" index="1202101" value="1"/>
  <variable name="C(3261,20)" index="1202102" value="2"/>
  <variable name="C(3261,14)" index="1202103" value="3"/>
  <variable name="C(3309,61)" index="1202318" value="1"/>
  <variable name="C(3309,60)" index="1202319" value="2"/>
  <variable name="C(3309,17)" index="1202320" value="3"/>
  <variable name="C(3371,60)" index="1202637" value="1"/>
  <variable name="C(3371,61)" index="1202638" value="2"/>
  <variable name="C(3371,64)" index="1202639" value="3"/>
  <variable name="C(3420,7)" index="1202907" value="1"/>
  <variable name="C(3420,52)" index="1202908" value="2"/>
  <variable name="C(3426,60)" index="1202934" value="1"/>
  <variable name="C(3426,59)" index="1202935" value="2"/>
 </variables>
</CPLEXSolution>
